NAME : OMNETRUN
COMMENT : 524.61
TYPE : CVRP
DIMENSION : 21
EDGE_WEIGHT_TYPE : EUC_2D
CAPACITY : 21
NODE_COORD_SECTION
1 0.107093 -0.77924
2 126.226 -459.087
3 81.6455 -1763.13
4 163.684 -2328.03
5 120.384 -3878.13
6 78.5955 -5104.84
7 196.737 -5682.24
8 299.25 -1181.01
9 411.913 -3414.1
10 270.18 -4393.77
11 571.194 -87.8827
12 738.071 -753.142
13 538.088 -2117.05
14 524.556 -2600.19
15 561.182 -3888.25
16 660.778 -4255.33
17 656.476 -4836.18
18 621.659 -5230.38
19 805.473 -368.592
20 777.357 -1430.15
21 888.797 -2435.09
DEMAND_SECTION
1 0
2 1
3 1
4 1
5 1
6 1
7 1
8 1
9 1
10 1
11 1
12 1
13 1
14 1
15 1
16 1
17 1
18 1
19 1
20 1
21 1
DEPOT_SECTION
1
-1
EOF
